1943226
0,38,134,178,26,33,150,107,88,228,48,162,184,151,159,121,176,217,157,124,226,196,10,60,24,125,113,28,44,79,84,130,192,205,142,197,46,45,67,202,5,216,3,20,108,169,87,11,145,185,149,170,141,186,37,32,4,138,56,194,190,193,7,96,59,43,63,106,34,93,80,129,168,101,77,86,54,61,143,19,35,71,156,66,126,62,15,2,22,199,94,78,50,57,153,13,211,171,229,122,123,1,189,174,55,17,65,105,140,221,177,198,188,6,146,206,225,83,208,207,25,21,18,136,144,109,119,164,166,135,187,131,212,203,92,167,102,58,220,51,75,213,9,12,155,137,68,118,147,172,173,180,148,98,99,215,201,104,91,53,52,23,40,218,179,120,76,181,112,69,85,72,97,133,116,209,74,191,195,100,214,204,27,39,49,182,219,8,183,36,160,165,115,95,90,210,29,224,175,222,163,16,14,117,82,42,31,30,158,127,114,103,81,128,152,227,89,223,110,47,64,200,41,70,132,111,154,161,73,139,0